n_machines = 2;
n_resources = 3;
n_jobs = 30;
horizon = 168;
LB = 84;
n_jobs_per_resource = [10, 10, 10];
duration = [5, 4, 9, 4, 2, 2, 5, 9, 9, 3, 1, 5, 9, 4, 4, 8, 6, 3, 7, 2, 6, 9, 7, 6, 5, 3, 7, 8, 9, 7]